StudentsNr = 10;
InstructorsNr = 71;
DaysNr = 1;
SlotsPerDay = 40;
AvailabilitySlotsLenght = 10;
RoomNr = 1;
ProgrammNr = 2;
DegreeNr = 3;
RolesNr = 2;
CoursesNr = 4;
InstructorsProgramm = [{2}, {1, 2}, {2}, {1}, {1}, {1}, {2}, {1}, {1, 2}, {2}, {1, 2}, {2}, {2}, {1, 2}, {1}, {1}, {1, 2}, {1}, {1, 2}, {1}, {2}, {2}, {1}, {1}, {1}, {2}, {1}, {1}, {1, 2}, {1}, {1}, {2}, {1, 2}, {1, 2}, {1, 2}, {1, 2}, {1}, {1, 2}, {1}, {1, 2}, {2}, {2}, {1, 2}, {2}, {2}, {1}, {1}, {1}, {2}, {1}, {1}, {2}, {1, 2}, {2}, {2}, {1}, {2}, {2}, {2}, {2}, {2}, {1, 2}, {2}, {1, 2}, {2}, {2}, {2}, {1, 2}, {1}, {2}, {1}];
InstructorRolesPerProgramm = [|{2, 8, 9, 16, 18, 29, 33, 38, 46, 51, 53, 56, 62, 64, 68, 69}, {4, 5, 6, 9, 11, 14, 15, 18, 19, 23, 25, 28, 29, 31, 33, 34, 35, 37, 39, 40, 46, 47, 48, 53, 56, 62, 68}|{1, 2, 9, 10, 26, 29, 33, 38, 42, 49, 53, 55, 60, 61, 62, 64, 65, 66, 68}, {1, 3, 7, 9, 11, 12, 14, 19, 22, 29, 32, 33, 34, 35, 40, 41, 42, 45, 52, 53, 58, 59, 61, 62, 67, 68}|];
InstructorsAvailability = [|0, 1, 1, 1, |1, 1, 1, 1, |0, 1, 1, 1, |0, 0, 1, 1, |0, 0, 0, 1, |0, 1, 1, 1, |0, 0, 0, 1, |0, 0, 1, 1, |1, 1, 1, 1, |1, 1, 1, 1, |1, 1, 1, 1, |0, 1, 1, 1, |0, 0, 1, 1, |0, 1, 1, 1, |0, 1, 1, 1, |1, 1, 1, 1, |1, 1, 1, 1, |1, 1, 1, 1, |0, 1, 1, 1, |0, 0, 1, 1, |0, 1, 1, 0, |1, 1, 1, 1, |0, 1, 1, 1, |1, 1, 1, 1, |1, 1, 1, 1, |0, 1, 1, 0, |1, 1, 0, 1, |1, 1, 1, 1, |1, 1, 0, 0, |0, 1, 1, 1, |1, 1, 1, 1, |1, 1, 1, 1, |1, 1, 1, 0, |0, 1, 1, 1, |1, 1, 1, 0, |1, 1, 1, 1, |0, 1, 1, 1, |0, 0, 1, 0, |0, 1, 1, 1, |1, 1, 0, 0, |1, 1, 0, 1, |1, 0, 0, 0, |1, 1, 1, 1, |0, 1, 1, 0, |0, 1, 1, 1, |0, 0, 1, 1, |0, 1, 1, 0, |1, 1, 1, 1, |1, 1, 1, 1, |1, 1, 1, 1, |0, 0, 0, 1, |1, 1, 1, 1, |0, 1, 1, 1, |0, 1, 1, 1, |0, 0, 1, 1, |0, 0, 1, 1, |0, 0, 1, 0, |0, 1, 1, 1, |1, 1, 1, 1, |1, 1, 1, 1, |1, 1, 1, 1, |1, 1, 1, 1, |0, 0, 0, 0, |1, 1, 1, 1, |0, 1, 1, 1, |1, 1, 0, 0, |0, 1, 1, 1, |0, 1, 0, 1, |1, 1, 0, 0, |1, 1, 0, 1, |0, 1, 1, 1|];
StudentsProgramm = [2, 2, 1, 2, 1, 2, 1, 2, 2, 2];
StudentsDegree = [1, 1, 2, 2, 2, 3, 2, 1, 1, 1];
StudentsSupervisorId = [61, 45, 38, 44, 35, 3, 24, 61, 13, 10];
StudentsCourseIds = [{}, {}, {1, 2, 3, 4}, {1, 2, 3, 4}, {1, 2, 3, 4}, {1}, {1, 2, 3, 4}, {}, {}, {}];
StudentsAvailability = [|0, 0, 1, 1, |0, 0, 0, 1, |1, 0, 0, 0, |1, 1, 1, 1, |1, 1, 1, 1, |0, 0, 0, 0, |1, 1, 1, 1, |0, 0, 0, 0, |0, 1, 1, 1, |0, 1, 1, 1|];
TheoryticalMinCard = [0, 0, 0, 0, 0, 0, 0, 0, 1, 0];
CoursesInstructorIds = [{3, 6, 7, 8, 9, 10, 11, 12, 14, 17, 18, 19, 20, 22, 23, 24, 25, 27, 30, 31, 32, 34, 35, 36, 42, 43, 44, 48, 49, 50, 52, 53, 54, 56, 57, 58, 61, 62, 66, 67, 68, 71}, {3, 5, 7, 10, 13, 17, 19, 20, 21, 23, 26, 27, 28, 34, 36, 38, 40, 43, 44, 45, 48, 49, 50, 51, 56, 57, 59, 64, 66, 70, 71}, {2, 3, 4, 5, 6, 8, 12, 13, 14, 16, 17, 19, 20, 22, 23, 26, 27, 28, 29, 30, 32, 35, 37, 38, 40, 41, 42, 45, 46, 47, 49, 50, 52, 53, 55, 56, 57, 61, 62, 63, 65, 66, 68, 69, 71}, {2, 4, 5, 8, 9, 11, 12, 15, 16, 17, 19, 20, 21, 23, 25, 26, 27, 30, 33, 36, 37, 38, 40, 41, 44, 45, 46, 47, 48, 49, 50, 51, 53, 54, 55, 56, 58, 59, 61, 62, 65, 66, 67, 68, 70, 71}];
RolesDemands = [15, 25];
RolesContinuity = [];
ExamLen = [1, 1, 2, 2, 2, 1, 2, 1, 1, 1];
LunchTsMinLen = 0;
LunchStarts = [19..22];
SupervisorAvailable = 0;
OptimalLunchLenght = [2, 1];
OptimalStartTs = [1, 0];
OptimalFinishTs = [2, 40];
MinimizeRooms = 300;
RolesSoftContinuity = [|1, 2|4, 1|];
SameDegreeInRoom = 20;
Mergeability = 1;
